multiobj/instances/reallike/Ter-rl-5-3-0.80-0.80-1.0-3.in
5 3
0 59 64 103 62 
59 0 70 49 40 
64 70 0 118 33 
103 49 118 0 85 
62 40 33 85 0 
0 2879 0 0 0 
2879 0 0 0 198 
0 0 0 0 0 
0 0 0 0 3964 
0 198 0 3964 0 
0 1213 0 0 14 
1213 0 0 0 11 
0 0 0 0 0 
0 0 0 0 28333 
14 11 0 28333 0 
0 2316 0 0 0 
2316 0 0 0 31 
0 0 0 1 0 
0 0 1 0 51486 
0 31 0 51486 0 
