multiobj/solutions/reallike/Ter-rl-5-3-0.80-0.80-1.0-3.out
2 3
3 1 0 2 4 
559606 1992112 3627652 
1 3 0 2 4 
577426 1991842 3630442 
